
Gurobi 9.1.2 (linux64) logging started Wed Aug  9 16:31:09 2023

Changed value of parameter LogFile to max-ls_r=('4', '1').log
   Prev:   Default: 
Changed value of parameter MIPFocus to 1
   Prev: 0  Min: 0  Max: 3  Default: 0
Changed value of parameter Threads to 32
   Prev: 0  Min: 0  Max: 1024  Default: 0
Changed value of parameter TimeLimit to 3600.0
   Prev: inf  Min: 0.0  Max: inf  Default: inf
Warning: variable name "X[('6', '6'),('7', '6')]" has a space
Warning: constraint name "flow-constr-t0-v('6', '3')" has a space
Warning: to let Gurobi read it back, use rlp format
Gurobi Optimizer version 9.1.2 build v9.1.2rc0 (linux64)
Thread count: 16 physical cores, 32 logical processors, using up to 32 threads
Optimize a model with 2947 rows, 2688 columns and 10296 nonzeros
Model fingerprint: 0x1ed6c1bb
Variable types: 256 continuous, 2432 integer (2432 binary)
Coefficient statistics:
  Matrix range     [1e+00, 7e+04]
  Objective range  [2e-01, 2e-01]
  Bounds range     [1e+00, 3e+04]
  RHS range        [1e+00, 7e+04]
Presolve removed 295 rows and 296 columns
Presolve time: 0.07s
Presolved: 2652 rows, 2392 columns, 18108 nonzeros
Variable types: 256 continuous, 2136 integer (2136 binary)

Root relaxation: objective 6.400000e+01, 154 iterations, 0.00 seconds

    Nodes    |    Current Node    |     Objective Bounds      |     Work
 Expl Unexpl |  Obj  Depth IntInf | Incumbent    BestBd   Gap | It/Node Time

     0     0   64.00000    0   20          -   64.00000      -     -    0s
H    0     0                     602.2499999   64.00000  89.4%     -    0s
H    0     0                     121.7500000   64.00000  47.4%     -    0s
H    0     0                     121.2500000   64.00000  47.2%     -    0s
H    0     0                     111.2500000   64.00000  42.5%     -    0s
     0     0   64.00000    0   69  111.25000   64.00000  42.5%     -    0s
H    0     0                      89.5000000   64.00000  28.5%     -    0s
     0     0   64.00000    0   69   89.50000   64.00000  28.5%     -    0s
     0     0   64.00000    0   28   89.50000   64.00000  28.5%     -    0s
H    0     0                      84.7500000   64.00000  24.5%     -    0s
     0     0   64.00000    0   28   84.75000   64.00000  24.5%     -    0s
H    0     0                      81.1666667   64.00000  21.1%     -    0s
     0     0   64.00000    0   20   81.16667   64.00000  21.1%     -    0s
H    0     0                      79.0833333   64.00000  19.1%     -    0s
H    0     0                      78.3333333   64.00000  18.3%     -    0s
     0     0   64.00000    0   20   78.33333   64.00000  18.3%     -    0s
     0     0   64.00000    0   26   78.33333   64.00000  18.3%     -    1s
H    0     0                      76.9166667   64.00000  16.8%     -    1s
     0     0   64.00000    0   40   76.91667   64.00000  16.8%     -    1s
     0     0   64.00000    0   18   76.91667   64.00000  16.8%     -    1s
H    0     0                      73.2500000   64.00000  12.6%     -    1s
H    0     0                      72.2500000   64.00000  11.4%     -    1s
H    0     0                      71.5000000   64.00000  10.5%     -    1s
H    0     2                      70.2500000   64.00000  8.90%     -    1s
     0     2   64.00000    0   14   70.25000   64.00000  8.90%     -    1s
H    1     4                      70.0000000   64.00000  8.57%   207    1s
H   15    32                      69.7500000   64.00000  8.24%  26.7    2s
H   25    32                      69.2500000   64.00000  7.58%  17.7    2s
H   47    62                      68.8750000   64.00000  7.08%  11.0    2s
H   95   126                      68.7500000   64.00000  6.91%   7.8    4s
H   96   126                      68.0000000   64.00000  5.88%   7.8    4s
H  101   126                      67.5000000   64.00000  5.19%   7.7    4s
H  118   126                      67.2500000   64.00000  4.83%   7.1    4s
H  119   126                      67.0000000   64.00000  4.48%   7.1    4s
   159   190   64.00000    9   21   67.00000   64.00000  4.48%   6.0    5s
H  163   190                      66.5000000   64.00000  3.76%   5.9    5s
H  302   320                      66.2500000   64.00000  3.40%   4.3    7s
H 1871  2732                      66.0000000   64.00000  3.03%   6.0    7s
H 2958  2489                      65.7812500   64.00000  2.71%   6.5    9s
H 2959  2489                      65.7500000   64.00000  2.66%   6.5    9s
H 2965  2417                      65.2500000   64.00000  1.92%   6.5    9s
H 3020  2589                      65.0000000   64.00000  1.54%   6.7   10s
H 3068  2589                      64.9999960   64.00000  1.54%   7.2   10s
H 3075  2589                      64.8750000   64.00000  1.35%   7.2   10s
H 3129  2547                      64.5000000   64.00000  0.78%   7.1   10s
H 3300  6441                      64.4999980   64.00000  0.78%   7.4   11s
H 4718  6441                      64.4000000   64.00000  0.62%   8.2   11s
H 7661  6121                      64.3999996   64.00000  0.62%   9.5   12s
H 7662  5815                      64.3333333   64.00000  0.52%   9.5   12s
H 7668  5528                      64.0000000   64.00000  0.00%   9.5   13s

Cutting planes:
  Learned: 1
  Cover: 45
  Implied bound: 67
  Clique: 42
  MIR: 19
  Flow cover: 27
  GUB cover: 6
  RLT: 9
  Relax-and-lift: 27

Explored 7668 nodes (91731 simplex iterations) in 13.24 seconds
Thread count was 32 (of 32 available processors)

Solution count 10: 64 64.3333 64.4 ... 65.25

Optimal solution found (tolerance 1.00e-04)
Best objective 6.400000000000e+01, best bound 6.400000000000e+01, gap 0.0000%
